; benchmark generated from python API
(set-info :status unknown)
(declare-fun s () Int)
(define-funs-rec ( ( T2_07 ((x!1 Int)) Int)
                   ( p2_07 ((x!1 Int)) Int)
                   ( ilog2_2_07 ((x!1 Int)) Int)
                   ( xor_2_07 ((x!1 Int) (x!2 Int)) Int)
                   ( T2_01 ((x!1 Int)) Int)
                   ( p2_01 ((x!1 Int)) Int))
                 ( (let ((a!1 (ite (= (mod ((_ p2_07 0) x!1) 2) 0)
                                   (- 1 ((_ T2_07 0) (- x!1 1)))
                                   ((_ T2_07 0) (- x!1 1)))))
                     (ite (= x!1 0) 0 a!1))
                   (+ ((_ ilog2_2_07 0) ((_ xor_2_07 0) x!1 (- x!1 1))) 1)
                   (ite (<= x!1 1) 0 (+ 1 ((_ ilog2_2_07 0) (div x!1 2))))
                   (let ((a!1 (+ (mod (+ (mod x!1 2) (mod x!2 2)) 2)
                                 (* 2 ((_ xor_2_07 0) (div x!1 2) (div x!2 2))))))
                     (ite (= x!1 0) x!2 (ite (= x!2 0) x!1 a!1)))
                   (mod ((_ p2_01 0) x!1) 2)
                   (ite (= x!1 0) 0 (+ ((_ p2_01 0) (div x!1 2)) x!1))))
(assert
 (forall ((n Int) )(let ((?x434 ((_ T2_07 0) n)))
 (let (($x380 (= ?x434 n)))
 (let ((?x433 ((_ T2_01 0) n)))
 (let (($x451 (= ?x433 n)))
 (let (($x480 (and $x451 $x380)))
 (let (($x387 (< n s)))
 (let (($x481 (>= n 0)))
 (let (($x420 (and $x481 $x387)))
 (=> $x420 $x480))))))))))
 )
(assert
 (let ((?x424 ((_ T2_01 0) s)))
 (= ?x424 1)))
(assert
 (let ((?x426 ((_ T2_07 0) s)))
 (= ?x426 1)))
(assert
 (forall ((n Int) )(let ((?x434 ((_ T2_07 0) n)))
(let ((?x433 ((_ T2_01 0) n)))
(let (($x489 (= ?x433 ?x434)))
(let (($x481 (>= n 0)))
(=> $x481 $x489))))))
)
(check-sat)
